# Node Net
8058   1
2070   1
6571   1
8087   2
720   2
8042   2
3511   3
4051   3
  3   3
 40   4
5041   4
 85   4
7381   5
8014   5
7831   5
361   6
8089   6
8017   7
 26   7
 19   8
  2   8
4590   9
5490   9
8093  10
8077  10
8056  11
8096  11
5761  12
8011  12
1890  13
 87  13
451  14
4411  14
8088  15
5131  15
4771  16
6661  16
